(set-info :Origin "This instance was generated by: BanditFuzz-- an RL fuzzer for SMT solvers" )
(set-info :Author "Joe Scott, Fed Mora, Vijay Ganesh" )
(set-info :Contact "Joe Scott, joseph.scott@uwaterloo.ca")
(set-logic QF_BV)
(declare-const bool_0 Bool)
(declare-const bool_1 Bool)
(declare-const bool_2 Bool)
(declare-const bool_3 Bool)
(declare-const bool_4 Bool)
(declare-const bv_0 (_ BitVec 32))
(declare-const bv_1 (_ BitVec 32))
(declare-const bv_2 (_ BitVec 32))
(declare-const bv_3 (_ BitVec 32))
(declare-const bv_4 (_ BitVec 32))
(assert (bvslt (bvnand (bvsmod #x07cf4515  #x61a5ab02 ) (bvashr #xd94b564d  #xe1bc4e7a )) (bvnand (bvashr #x5d16ea3b  bv_3) (bvmul bv_3 bv_0))))
(assert (=> (bvuge (bvudiv #x3e2e0d4c  bv_0) (bvnor bv_2 bv_1)) (bvsgt (bvand bv_1 #x3b041129 ) (bvshl #xd7a87b54  #x4d4777ca ))))
(assert (and (bvslt (bvurem #xab31b745  bv_2) (bvlshr bv_3 #xf0ebbd6a )) (or (=> bool_4 bool_0) (bvugt bv_3 bv_0))))
(assert (or (bvsle (bvmul #xe3dc479f  #x8d444730 ) (bvurem #xffe89fc8  bv_4)) (or (bvslt #x150b408c  #x33a155ad ) (bvuge #x6f2ac0f4  bv_2))))
(assert (bvsle (bvlshr (bvudiv bv_3 #x4b1e1076 ) (bvudiv #x125c6533  #x14acf82a )) (bvurem (bvudiv #xca1d7566  bv_0) (bvsub #xba93de5e  #xf9a90092 ))))
(check-sat)
(exit)
